1614598200
1614612780
1614684600
1614700800
1614771000
1614785640
1614857400
1614871800
1614943800
1614958680
1615289400
1615308360
1615375800
1615392000
1615462200
1615479420
1615548600
1615563900
1615807800
1615820640
1615894200
1615911480
1615980600
1615996560
1616067000
1616081700
1616153400
1616168340
1616412600
1616427000
1616499000
1616516820
1616585400
1616594460
1616670000
1616684340
1616758200
1616772600
1616844600
1616862840
1617013800
1617032040
1617100200
1617114660
1617186600
1617201480
